*HEADING
Concrete Fire Behavior Analysis - Finite Element Model
*NODE
*ELEMENT, TYPE=C3D8R
*NSET, NSET=ALL
*ELSET, ELSET=ALL
*MATERIAL, NAME=CONCRETE
*ELASTIC
30.0, 0.20
*CONCRETE DAMAGED PLASTICITY
36.0, 0.1, 1.16, 0.667, 0.0001
*CONCRETE COMPRESSION HARDENING
0.000, 40.0
0.001, 38.0
0.002, 35.0
0.003, 30.0
0.004, 25.0
0.005, 20.0
*CONCRETE TENSION STIFFENING
0.000, 3.2
0.0001, 2.8
0.0002, 2.4
0.0003, 2.0
0.0004, 1.6
0.0005, 1.2
*CONCRETE COMPRESSION DAMAGE
0.000, 0.000
0.001, 0.100
0.002, 0.300
0.003, 0.500
0.004, 0.700
0.005, 0.900
*CONCRETE TENSION DAMAGE
0.000, 0.000
0.0001, 0.200
0.0002, 0.400
0.0003, 0.600
0.0004, 0.800
0.0005, 0.950
*DENSITY
2400.0
*CONDUCTIVITY
1.8
*SPECIFIC HEAT
900.0
*EXPANSION
10.0e-6
*BOUNDARY
*STEP, NAME=HEATING, INC=1000
*HEAT TRANSFER
*TEMPERATURE
*END STEP
*STEP, NAME=LOADING, INC=1000
*STATIC
*DLOAD
*END STEP